data/solutions/exact100kb/instance092.txt
VALUE 1400250
2 112
5 109
2 7
11 104
5 12
15 101
11 17
21 96
15 22
25 93
21 27
31 88
25 32
35 85
31 37
41 80
35 42
45 77
41 47
51 72
45 52
56 68
51 57
56 62
64 128
57 68
52 72
47 77
42 80
37 85
32 88
27 93
22 96
17 101
12 104
7 109
112 113
113 114
64 114
2 115
7 116
12 117
17 118
22 119
27 120
32 121
37 122
42 123
47 124
52 125
57 126
62 127

